[VALIDATOR STDOUT]
Checking plan: /home/jfan5/Safety-gen/runs/benchmark/optic/ferry_20260205_141548/ferry/optic_results/ferry-l06-c04-s6001.plan
Plan to validate:

Plan size: 16
1:
(sail l0 l5)
 
2:
(board c3 l5)
 
3:
(sail l5 l4)
 
4:
(debark c3 l4)
 
5:
(sail l4 l5)
 
6:
(board c2 l5)
 
7:
(sail l5 l1)
 
8:
(debark c2 l1)
 
9:
(sail l1 l3)
 
10:
(board c1 l3)
 
11:
(sail l3 l5)
 
12:
(debark c1 l5)
 
13:
(sail l5 l3)
 
14:
(board c0 l3)
 
15:
(sail l3 l1)
 
16:
(debark c0 l1)
 

Plan Validation details
-----------------------

Checking next happening (time 1)
Deleting (at-ferry l0)
Adding (at-ferry l5)

Checking next happening (time 2)
Deleting (at c3 l5)
Deleting (empty-ferry)
Adding (on c3)

Checking next happening (time 3)
Deleting (at-ferry l5)
Adding (at-ferry l4)

Checking next happening (time 4)
Deleting (on c3)
Adding (at c3 l4)
Adding (empty-ferry)

Checking next happening (time 5)
Deleting (at-ferry l4)
Adding (at-ferry l5)

Checking next happening (time 6)
Deleting (at c2 l5)
Deleting (empty-ferry)
Adding (on c2)

Checking next happening (time 7)
Deleting (at-ferry l5)
Adding (at-ferry l1)

Checking next happening (time 8)
Deleting (on c2)
Adding (at c2 l1)
Adding (empty-ferry)

Checking next happening (time 9)
Deleting (at-ferry l1)
Adding (at-ferry l3)

Checking next happening (time 10)
Deleting (at c1 l3)
Deleting (empty-ferry)
Adding (on c1)

Checking next happening (time 11)
Deleting (at-ferry l3)
Adding (at-ferry l5)

Checking next happening (time 12)
Deleting (on c1)
Adding (at c1 l5)
Adding (empty-ferry)

Checking next happening (time 13)
Deleting (at-ferry l5)
Adding (at-ferry l3)

Checking next happening (time 14)
Deleting (at c0 l3)
Deleting (empty-ferry)
Adding (on c0)

Checking next happening (time 15)
Deleting (at-ferry l3)
Adding (at-ferry l1)

Checking next happening (time 16)
Deleting (on c0)
Adding (at c0 l1)
Adding (empty-ferry)
Plan executed successfully - checking goal
Plan valid
Final value: 16 

Successful plans:
Value: 16
 /home/jfan5/Safety-gen/runs/benchmark/optic/ferry_20260205_141548/ferry/optic_results/ferry-l06-c04-s6001.plan 16
